p cnf 961 2466
51 -694 -695 0
-51 694 0
-51 695 0
52 -51 -3 0
-52 51 0
-52 3 0
53 -696 -4 0
-53 696 0
-53 4 0
54 -53 -697 0
-54 53 0
-54 697 0
55 -698 -699 0
-55 698 0
-55 699 0
56 -700 -701 0
-56 700 0
-56 701 0
57 -56 -702 0
-57 56 0
-57 702 0
58 -703 -55 0
-58 703 0
-58 55 0
59 -704 -705 0
-59 704 0
-59 705 0
60 -59 -12 0
-60 59 0
-60 12 0
61 -706 -58 0
-61 706 0
-61 58 0
62 -14 -13 0
-62 14 0
-62 13 0
63 -62 -15 0
-63 62 0
-63 15 0
64 -707 -61 0
-64 707 0
-64 61 0
65 -17 -16 0
-65 17 0
-65 16 0
66 -65 -708 0
-66 65 0
-66 708 0
67 -709 -64 0
-67 709 0
-67 64 0
68 -710 -705 0
-68 710 0
-68 705 0
69 -68 -697 0
-69 68 0
-69 697 0
70 -711 -67 0
-70 711 0
-70 67 0
71 -712 -4 0
-71 712 0
-71 4 0
72 -71 -21 0
-72 71 0
-72 21 0
73 -713 -70 0
-73 713 0
-73 70 0
74 -714 -715 0
-74 714 0
-74 715 0
75 -74 -6 0
-75 74 0
-75 6 0
76 -716 -73 0
-76 716 0
-76 73 0
77 -717 -718 0
-77 717 0
-77 718 0
78 -77 -25 0
-78 77 0
-78 25 0
79 -719 -76 0
-79 719 0
-79 76 0
80 -720 -721 0
-80 720 0
-80 721 0
81 -80 -17 0
-81 80 0
-81 17 0
82 -722 -79 0
-82 722 0
-82 79 0
83 -17 -723 0
-83 17 0
-83 723 0
84 -83 -724 0
-84 83 0
-84 724 0
85 -725 -82 0
-85 725 0
-85 82 0
86 -9 -694 0
-86 9 0
-86 694 0
87 -86 -697 0
-87 86 0
-87 697 0
88 -726 -85 0
-88 726 0
-88 85 0
89 -720 -712 0
-89 720 0
-89 712 0
90 -89 -8 0
-90 89 0
-90 8 0
91 -727 -88 0
-91 727 0
-91 88 0
92 -728 -721 0
-92 728 0
-92 721 0
93 -92 -6 0
-93 92 0
-93 6 0
94 -729 -91 0
-94 729 0
-94 91 0
95 -19 -730 0
-95 19 0
-95 730 0
96 -95 -29 0
-96 95 0
-96 29 0
97 -731 -94 0
-97 731 0
-97 94 0
98 -31 -732 0
-98 31 0
-98 732 0
99 -98 -3 0
-99 98 0
-99 3 0
100 -733 -97 0
-100 733 0
-100 97 0
101 -30 -721 0
-101 30 0
-101 721 0
102 -101 -734 0
-102 101 0
-102 734 0
103 -735 -100 0
-103 735 0
-103 100 0
104 -736 -9 0
-104 736 0
-104 9 0
105 -104 -29 0
-105 104 0
-105 29 0
106 -737 -103 0
-106 737 0
-106 103 0
107 -51 -33 0
-107 51 0
-107 33 0
108 -738 -106 0
-108 738 0
-108 106 0
109 -34 -728 0
-109 34 0
-109 728 0
110 -109 -35 0
-110 109 0
-110 35 0
111 -739 -108 0
-111 739 0
-111 108 0
112 -14 -700 0
-112 14 0
-112 700 0
113 -112 -740 0
-113 112 0
-113 740 0
114 -741 -111 0
-114 741 0
-114 111 0
115 -36 -717 0
-115 36 0
-115 717 0
116 -115 -37 0
-116 115 0
-116 37 0
117 -742 -114 0
-117 742 0
-117 114 0
118 -38 -700 0
-118 38 0
-118 700 0
119 -118 -743 0
-119 118 0
-119 743 0
120 -744 -117 0
-120 744 0
-120 117 0
121 -39 -29 0
-121 39 0
-121 29 0
122 -121 -40 0
-122 121 0
-122 40 0
123 -745 -120 0
-123 745 0
-123 120 0
124 -746 -1 0
-124 746 0
-124 1 0
125 -124 -5 0
-125 124 0
-125 5 0
126 -747 -123 0
-126 747 0
-126 123 0
127 -29 -7 0
-127 29 0
-127 7 0
128 -127 -22 0
-128 127 0
-128 22 0
129 -748 -126 0
-129 748 0
-129 126 0
130 -92 -696 0
-130 92 0
-130 696 0
131 -749 -129 0
-131 749 0
-131 129 0
132 -42 -715 0
-132 42 0
-132 715 0
133 -132 -12 0
-133 132 0
-133 12 0
134 -750 -131 0
-134 750 0
-134 131 0
135 -751 -702 0
-135 751 0
-135 702 0
136 -135 -27 0
-136 135 0
-136 27 0
137 -752 -134 0
-137 752 0
-137 134 0
138 -753 -696 0
-138 753 0
-138 696 0
139 -138 -6 0
-139 138 0
-139 6 0
140 -754 -137 0
-140 754 0
-140 137 0
141 -715 -4 0
-141 715 0
-141 4 0
142 -141 -17 0
-142 141 0
-142 17 0
143 -755 -140 0
-143 755 0
-143 140 0
144 -736 -30 0
-144 736 0
-144 30 0
145 -144 -39 0
-145 144 0
-145 39 0
146 -756 -143 0
-146 756 0
-146 143 0
147 -43 -757 0
-147 43 0
-147 757 0
148 -147 -708 0
-148 147 0
-148 708 0
149 -758 -146 0
-149 758 0
-149 146 0
150 -38 -25 0
-150 38 0
-150 25 0
151 -150 -31 0
-151 150 0
-151 31 0
152 -759 -149 0
-152 759 0
-152 149 0
153 -15 -5 0
-153 15 0
-153 5 0
154 -153 -44 0
-154 153 0
-154 44 0
155 -760 -152 0
-155 760 0
-155 152 0
156 -32 -24 0
-156 32 0
-156 24 0
157 -156 -746 0
-157 156 0
-157 746 0
158 -761 -155 0
-158 761 0
-158 155 0
159 -714 -762 0
-159 714 0
-159 762 0
160 -159 -763 0
-160 159 0
-160 763 0
161 -764 -158 0
-161 764 0
-161 158 0
162 -24 -2 0
-162 24 0
-162 2 0
163 -162 -19 0
-163 162 0
-163 19 0
164 -765 -161 0
-164 765 0
-164 161 0
165 -766 -9 0
-165 766 0
-165 9 0
166 -165 -751 0
-166 165 0
-166 751 0
167 -767 -164 0
-167 767 0
-167 164 0
168 -768 -30 0
-168 768 0
-168 30 0
169 -168 -753 0
-169 168 0
-169 753 0
170 -769 -167 0
-170 769 0
-170 167 0
171 -728 -21 0
-171 728 0
-171 21 0
172 -171 -757 0
-172 171 0
-172 757 0
173 -770 -170 0
-173 770 0
-173 170 0
174 -46 -19 0
-174 46 0
-174 19 0
175 -174 -740 0
-175 174 0
-175 740 0
176 -771 -173 0
-176 771 0
-176 173 0
177 -47 -28 0
-177 47 0
-177 28 0
178 -177 -746 0
-178 177 0
-178 746 0
179 -772 -176 0
-179 772 0
-179 176 0
180 -720 -773 0
-180 720 0
-180 773 0
181 -180 -29 0
-181 180 0
-181 29 0
182 -774 -179 0
-182 774 0
-182 179 0
183 -775 -704 0
-183 775 0
-183 704 0
184 -183 -762 0
-184 183 0
-184 762 0
185 -776 -182 0
-185 776 0
-185 182 0
186 -36 -5 0
-186 36 0
-186 5 0
187 -186 -777 0
-187 186 0
-187 777 0
188 -778 -185 0
-188 778 0
-188 185 0
189 -743 -779 0
-189 743 0
-189 779 0
190 -189 -780 0
-190 189 0
-190 780 0
191 -781 -188 0
-191 781 0
-191 188 0
192 -736 -717 0
-192 736 0
-192 717 0
193 -192 -782 0
-193 192 0
-193 782 0
194 -783 -191 0
-194 783 0
-194 191 0
195 -35 -19 0
-195 35 0
-195 19 0
196 -195 -780 0
-196 195 0
-196 780 0
197 -784 -194 0
-197 784 0
-197 194 0
198 -728 -700 0
-198 728 0
-198 700 0
199 -198 -721 0
-199 198 0
-199 721 0
200 -785 -197 0
-200 785 0
-200 197 0
201 -42 -700 0
-201 42 0
-201 700 0
202 -201 -786 0
-202 201 0
-202 786 0
203 -787 -200 0
-203 787 0
-203 200 0
204 -732 -718 0
-204 732 0
-204 718 0
205 -204 -782 0
-205 204 0
-205 782 0
206 -788 -203 0
-206 788 0
-206 203 0
207 -789 -732 0
-207 789 0
-207 732 0
208 -207 -49 0
-208 207 0
-208 49 0
209 -790 -206 0
-209 790 0
-209 206 0
210 -33 -1 0
-210 33 0
-210 1 0
211 -210 -724 0
-211 210 0
-211 724 0
212 -791 -209 0
-212 791 0
-212 209 0
213 -36 -30 0
-213 36 0
-213 30 0
214 -213 -16 0
-214 213 0
-214 16 0
215 -792 -212 0
-215 792 0
-215 212 0
216 -779 -8 0
-216 779 0
-216 8 0
217 -216 -793 0
-217 216 0
-217 793 0
218 -794 -215 0
-218 794 0
-218 215 0
219 -793 -715 0
-219 793 0
-219 715 0
220 -219 -697 0
-220 219 0
-220 697 0
221 -795 -218 0
-221 795 0
-221 218 0
222 -782 -30 0
-222 782 0
-222 30 0
223 -222 -775 0
-223 222 0
-223 775 0
224 -796 -221 0
-224 796 0
-224 221 0
225 -797 -701 0
-225 797 0
-225 701 0
226 -225 -35 0
-226 225 0
-226 35 0
227 -798 -224 0
-227 798 0
-227 224 0
228 -721 -697 0
-228 721 0
-228 697 0
229 -228 -34 0
-229 228 0
-229 34 0
230 -799 -227 0
-230 799 0
-230 227 0
231 -39 -728 0
-231 39 0
-231 728 0
232 -231 -743 0
-232 231 0
-232 743 0
233 -800 -230 0
-233 800 0
-233 230 0
234 -720 -762 0
-234 720 0
-234 762 0
235 -234 -44 0
-235 234 0
-235 44 0
236 -801 -233 0
-236 801 0
-236 233 0
237 -779 -9 0
-237 779 0
-237 9 0
238 -237 -17 0
-238 237 0
-238 17 0
239 -802 -236 0
-239 802 0
-239 236 0
240 -803 -29 0
-240 803 0
-240 29 0
241 -240 -734 0
-241 240 0
-241 734 0
242 -804 -239 0
-242 804 0
-242 239 0
243 -80 -41 0
-243 80 0
-243 41 0
244 -805 -242 0
-244 805 0
-244 242 0
245 -789 -704 0
-245 789 0
-245 704 0
246 -245 -5 0
-246 245 0
-246 5 0
247 -806 -244 0
-247 806 0
-247 244 0
248 -710 -14 0
-248 710 0
-248 14 0
249 -248 -43 0
-249 248 0
-249 43 0
250 -807 -247 0
-250 807 0
-250 247 0
251 -789 -768 0
-251 789 0
-251 768 0
252 -251 -23 0
-252 251 0
-252 23 0
253 -808 -250 0
-253 808 0
-253 250 0
254 -20 -2 0
-254 20 0
-254 2 0
255 -254 -29 0
-255 254 0
-255 29 0
256 -809 -253 0
-256 809 0
-256 253 0
257 -20 -740 0
-257 20 0
-257 740 0
258 -257 -696 0
-258 257 0
-258 696 0
259 -810 -256 0
-259 810 0
-259 256 0
260 -757 -714 0
-260 757 0
-260 714 0
261 -260 -6 0
-261 260 0
-261 6 0
262 -811 -259 0
-262 811 0
-262 259 0
263 -39 -721 0
-263 39 0
-263 721 0
264 -263 -746 0
-264 263 0
-264 746 0
265 -812 -262 0
-265 812 0
-265 262 0
266 -20 -15 0
-266 20 0
-266 15 0
267 -266 -3 0
-267 266 0
-267 3 0
268 -813 -265 0
-268 813 0
-268 265 0
269 -47 -751 0
-269 47 0
-269 751 0
270 -269 -18 0
-270 269 0
-270 18 0
271 -814 -268 0
-271 814 0
-271 268 0
272 -736 -704 0
-272 736 0
-272 704 0
273 -272 -697 0
-273 272 0
-273 697 0
274 -815 -271 0
-274 815 0
-274 271 0
275 -717 -712 0
-275 717 0
-275 712 0
276 -275 -37 0
-276 275 0
-276 37 0
277 -816 -274 0
-277 816 0
-277 274 0
278 -746 -721 0
-278 746 0
-278 721 0
279 -278 -35 0
-279 278 0
-279 35 0
280 -817 -277 0
-280 817 0
-280 277 0
281 -17 -6 0
-281 17 0
-281 6 0
282 -281 -12 0
-282 281 0
-282 12 0
283 -818 -280 0
-283 818 0
-283 280 0
284 -24 -694 0
-284 24 0
-284 694 0
285 -284 -714 0
-285 284 0
-285 714 0
286 -819 -283 0
-286 819 0
-286 283 0
287 -46 -736 0
-287 46 0
-287 736 0
288 -287 -47 0
-288 287 0
-288 47 0
289 -820 -286 0
-289 820 0
-289 286 0
290 -821 -702 0
-290 821 0
-290 702 0
291 -290 -793 0
-291 290 0
-291 793 0
292 -822 -289 0
-292 822 0
-292 289 0
293 -46 -25 0
-293 46 0
-293 25 0
294 -293 -12 0
-294 293 0
-294 12 0
295 -823 -292 0
-295 823 0
-295 292 0
296 -773 -704 0
-296 773 0
-296 704 0
297 -296 -40 0
-297 296 0
-297 40 0
298 -824 -295 0
-298 824 0
-298 295 0
299 -732 -24 0
-299 732 0
-299 24 0
300 -299 -789 0
-300 299 0
-300 789 0
301 -825 -298 0
-301 825 0
-301 298 0
302 -775 -24 0
-302 775 0
-302 24 0
303 -302 -697 0
-303 302 0
-303 697 0
304 -826 -301 0
-304 826 0
-304 301 0
305 -827 -695 0
-305 827 0
-305 695 0
306 -305 -23 0
-306 305 0
-306 23 0
307 -828 -304 0
-307 828 0
-307 304 0
308 -702 -740 0
-308 702 0
-308 740 0
309 -308 -49 0
-309 308 0
-309 49 0
310 -829 -307 0
-310 829 0
-310 307 0
311 -47 -46 0
-311 47 0
-311 46 0
312 -311 -786 0
-312 311 0
-312 786 0
313 -830 -310 0
-313 830 0
-313 310 0
314 -736 -24 0
-314 736 0
-314 24 0
315 -314 -38 0
-315 314 0
-315 38 0
316 -831 -313 0
-316 831 0
-316 313 0
317 -32 -22 0
-317 32 0
-317 22 0
318 -317 -827 0
-318 317 0
-318 827 0
319 -832 -316 0
-319 832 0
-319 316 0
320 -702 -700 0
-320 702 0
-320 700 0
321 -320 -751 0
-321 320 0
-321 751 0
322 -833 -319 0
-322 833 0
-322 319 0
323 -25 -2 0
-323 25 0
-323 2 0
324 -323 -22 0
-324 323 0
-324 22 0
325 -834 -322 0
-325 834 0
-325 322 0
326 -47 -40 0
-326 47 0
-326 40 0
327 -326 -780 0
-327 326 0
-327 780 0
328 -835 -325 0
-328 835 0
-328 325 0
329 -728 -2 0
-329 728 0
-329 2 0
330 -329 -700 0
-330 329 0
-330 700 0
331 -836 -328 0
-331 836 0
-331 328 0
332 -45 -694 0
-332 45 0
-332 694 0
333 -332 -9 0
-333 332 0
-333 9 0
334 -837 -331 0
-334 837 0
-334 331 0
335 -38 -14 0
-335 38 0
-335 14 0
336 -335 -762 0
-336 335 0
-336 762 0
337 -838 -334 0
-337 838 0
-337 334 0
338 -720 -700 0
-338 720 0
-338 700 0
339 -338 -753 0
-339 338 0
-339 753 0
340 -839 -337 0
-340 839 0
-340 337 0
341 -723 -1 0
-341 723 0
-341 1 0
342 -341 -44 0
-342 341 0
-342 44 0
343 -840 -340 0
-343 840 0
-343 340 0
344 -48 -720 0
-344 48 0
-344 720 0
345 -344 -696 0
-345 344 0
-345 696 0
346 -841 -343 0
-346 841 0
-346 343 0
347 -782 -25 0
-347 782 0
-347 25 0
348 -347 -714 0
-348 347 0
-348 714 0
349 -842 -346 0
-349 842 0
-349 346 0
350 -712 -1 0
-350 712 0
-350 1 0
351 -350 -827 0
-351 350 0
-351 827 0
352 -843 -349 0
-352 843 0
-352 349 0
353 -34 -827 0
-353 34 0
-353 827 0
354 -353 -3 0
-354 353 0
-354 3 0
355 -844 -352 0
-355 844 0
-355 352 0
356 -44 -723 0
-356 44 0
-356 723 0
357 -356 -724 0
-357 356 0
-357 724 0
358 -845 -355 0
-358 845 0
-358 355 0
359 -32 -712 0
-359 32 0
-359 712 0
360 -359 -47 0
-360 359 0
-360 47 0
361 -846 -358 0
-361 846 0
-361 358 0
362 -768 -736 0
-362 768 0
-362 736 0
363 -362 -743 0
-363 362 0
-363 743 0
364 -847 -361 0
-364 847 0
-364 361 0
365 -46 -39 0
-365 46 0
-365 39 0
366 -365 -762 0
-366 365 0
-366 762 0
367 -848 -364 0
-367 848 0
-367 364 0
368 -49 -43 0
-368 49 0
-368 43 0
369 -368 -708 0
-369 368 0
-369 708 0
370 -849 -367 0
-370 849 0
-370 367 0
371 -48 -29 0
-371 48 0
-371 29 0
372 -371 -723 0
-372 371 0
-372 723 0
373 -850 -370 0
-373 850 0
-373 370 0
374 -26 -8 0
-374 26 0
-374 8 0
375 -374 -697 0
-375 374 0
-375 697 0
376 -851 -373 0
-376 851 0
-376 373 0
377 -33 -29 0
-377 33 0
-377 29 0
378 -377 -6 0
-378 377 0
-378 6 0
379 -852 -376 0
-379 852 0
-379 376 0
380 -47 -9 0
-380 47 0
-380 9 0
381 -380 -3 0
-381 380 0
-381 3 0
382 -853 -379 0
-382 853 0
-382 379 0
383 -697 -696 0
-383 697 0
-383 696 0
384 -383 -3 0
-384 383 0
-384 3 0
385 -854 -382 0
-385 854 0
-385 382 0
386 -714 -20 0
-386 714 0
-386 20 0
387 -386 -743 0
-387 386 0
-387 743 0
388 -855 -385 0
-388 855 0
-388 385 0
389 -46 -14 0
-389 46 0
-389 14 0
390 -389 -777 0
-390 389 0
-390 777 0
391 -856 -388 0
-391 856 0
-391 388 0
392 -46 -7 0
-392 46 0
-392 7 0
393 -392 -27 0
-393 392 0
-393 27 0
394 -857 -391 0
-394 857 0
-394 391 0
395 -359 -22 0
-395 359 0
-395 22 0
396 -858 -394 0
-396 858 0
-396 394 0
397 -757 -9 0
-397 757 0
-397 9 0
398 -397 -763 0
-398 397 0
-398 763 0
399 -859 -396 0
-399 859 0
-399 396 0
400 -25 -717 0
-400 25 0
-400 717 0
401 -400 -821 0
-401 400 0
-401 821 0
402 -860 -399 0
-402 860 0
-402 399 0
403 -20 -13 0
-403 20 0
-403 13 0
404 -403 -715 0
-404 403 0
-404 715 0
405 -861 -402 0
-405 861 0
-405 402 0
406 -26 -712 0
-406 26 0
-406 712 0
407 -406 -763 0
-407 406 0
-407 763 0
408 -862 -405 0
-408 862 0
-408 405 0
409 -15 -702 0
-409 15 0
-409 702 0
410 -409 -40 0
-410 409 0
-410 40 0
411 -863 -408 0
-411 863 0
-411 408 0
412 -38 -10 0
-412 38 0
-412 10 0
413 -412 -22 0
-413 412 0
-413 22 0
414 -864 -411 0
-414 864 0
-414 411 0
415 -11 -702 0
-415 11 0
-415 702 0
416 -415 -12 0
-416 415 0
-416 12 0
417 -865 -414 0
-417 865 0
-417 414 0
418 -751 -11 0
-418 751 0
-418 11 0
419 -418 -18 0
-419 418 0
-419 18 0
420 -866 -417 0
-420 866 0
-420 417 0
421 -40 -694 0
-421 40 0
-421 694 0
422 -421 -723 0
-422 421 0
-422 723 0
423 -867 -420 0
-423 867 0
-423 420 0
424 -803 -20 0
-424 803 0
-424 20 0
425 -424 -734 0
-425 424 0
-425 734 0
426 -868 -423 0
-426 868 0
-426 423 0
427 -717 -734 0
-427 717 0
-427 734 0
428 -427 -18 0
-428 427 0
-428 18 0
429 -869 -426 0
-429 869 0
-429 426 0
430 -22 -710 0
-430 22 0
-430 710 0
431 -430 -743 0
-431 430 0
-431 743 0
432 -870 -429 0
-432 870 0
-432 429 0
433 -789 -46 0
-433 789 0
-433 46 0
434 -433 -23 0
-434 433 0
-434 23 0
435 -871 -432 0
-435 871 0
-435 432 0
436 -293 -793 0
-436 293 0
-436 793 0
437 -872 -435 0
-437 872 0
-437 435 0
438 -768 -21 0
-438 768 0
-438 21 0
439 -438 -16 0
-439 438 0
-439 16 0
440 -873 -437 0
-440 873 0
-440 437 0
441 -736 -10 0
-441 736 0
-441 10 0
442 -441 -708 0
-442 441 0
-442 708 0
443 -874 -440 0
-443 874 0
-443 440 0
444 -24 -14 0
-444 24 0
-444 14 0
445 -444 -11 0
-445 444 0
-445 11 0
446 -875 -443 0
-446 875 0
-446 443 0
447 -753 -11 0
-447 753 0
-447 11 0
448 -447 -734 0
-448 447 0
-448 734 0
449 -876 -446 0
-449 876 0
-449 446 0
450 -803 -702 0
-450 803 0
-450 702 0
451 -450 -717 0
-451 450 0
-451 717 0
452 -877 -449 0
-452 877 0
-452 449 0
453 -746 -710 0
-453 746 0
-453 710 0
454 -453 -48 0
-454 453 0
-454 48 0
455 -878 -452 0
-455 878 0
-455 452 0
456 -46 -695 0
-456 46 0
-456 695 0
457 -456 -49 0
-457 456 0
-457 49 0
458 -879 -455 0
-458 879 0
-458 455 0
459 -751 -24 0
-459 751 0
-459 24 0
460 -459 -768 0
-460 459 0
-460 768 0
461 -880 -458 0
-461 880 0
-461 458 0
462 -757 -15 0
-462 757 0
-462 15 0
463 -462 -775 0
-463 462 0
-463 775 0
464 -881 -461 0
-464 881 0
-464 461 0
465 -766 -41 0
-465 766 0
-465 41 0
466 -465 -3 0
-466 465 0
-466 3 0
467 -882 -464 0
-467 882 0
-467 464 0
468 -29 -720 0
-468 29 0
-468 720 0
469 -468 -42 0
-469 468 0
-469 42 0
470 -883 -467 0
-470 883 0
-470 467 0
471 -884 -705 0
-471 884 0
-471 705 0
472 -471 -27 0
-472 471 0
-472 27 0
473 -885 -470 0
-473 885 0
-473 470 0
474 -25 -730 0
-474 25 0
-474 730 0
475 -474 -827 0
-475 474 0
-475 827 0
476 -886 -473 0
-476 886 0
-476 473 0
477 -33 -734 0
-477 33 0
-477 734 0
478 -477 -12 0
-478 477 0
-478 12 0
479 -887 -476 0
-479 887 0
-479 476 0
480 -718 -704 0
-480 718 0
-480 704 0
481 -480 -21 0
-481 480 0
-481 21 0
482 -888 -479 0
-482 888 0
-482 479 0
483 -827 -720 0
-483 827 0
-483 720 0
484 -483 -44 0
-484 483 0
-484 44 0
485 -889 -482 0
-485 889 0
-485 482 0
486 -17 -15 0
-486 17 0
-486 15 0
487 -486 -723 0
-487 486 0
-487 723 0
488 -890 -485 0
-488 890 0
-488 485 0
489 -13 -1 0
-489 13 0
-489 1 0
490 -489 -743 0
-490 489 0
-490 743 0
491 -891 -488 0
-491 891 0
-491 488 0
492 -30 -728 0
-492 30 0
-492 728 0
493 -492 -38 0
-493 492 0
-493 38 0
494 -892 -491 0
-494 892 0
-494 491 0
495 -19 -705 0
-495 19 0
-495 705 0
496 -495 -696 0
-496 495 0
-496 696 0
497 -893 -494 0
-497 893 0
-497 494 0
498 -717 -2 0
-498 717 0
-498 2 0
499 -498 -779 0
-499 498 0
-499 779 0
500 -894 -497 0
-500 894 0
-500 497 0
501 -47 -736 0
-501 47 0
-501 736 0
502 -501 -746 0
-502 501 0
-502 746 0
503 -895 -500 0
-503 895 0
-503 500 0
504 -31 -695 0
-504 31 0
-504 695 0
505 -504 -763 0
-505 504 0
-505 763 0
506 -896 -503 0
-506 896 0
-506 503 0
507 -121 -3 0
-507 121 0
-507 3 0
508 -897 -506 0
-508 897 0
-508 506 0
509 -14 -2 0
-509 14 0
-509 2 0
510 -509 -29 0
-510 509 0
-510 29 0
511 -898 -508 0
-511 898 0
-511 508 0
512 -24 -730 0
-512 24 0
-512 730 0
513 -512 -780 0
-513 512 0
-513 780 0
514 -899 -511 0
-514 899 0
-514 511 0
515 -766 -728 0
-515 766 0
-515 728 0
516 -515 -782 0
-516 515 0
-516 782 0
517 -900 -514 0
-517 900 0
-517 514 0
518 -27 -26 0
-518 27 0
-518 26 0
519 -518 -18 0
-519 518 0
-519 18 0
520 -901 -517 0
-520 901 0
-520 517 0
521 -712 -8 0
-521 712 0
-521 8 0
522 -521 -18 0
-522 521 0
-522 18 0
523 -902 -520 0
-523 902 0
-523 520 0
524 -45 -700 0
-524 45 0
-524 700 0
525 -524 -34 0
-525 524 0
-525 34 0
526 -903 -523 0
-526 903 0
-526 523 0
527 -49 -13 0
-527 49 0
-527 13 0
528 -527 -42 0
-528 527 0
-528 42 0
529 -904 -526 0
-529 904 0
-529 526 0
530 -49 -717 0
-530 49 0
-530 717 0
531 -530 -31 0
-531 530 0
-531 31 0
532 -905 -529 0
-532 905 0
-532 529 0
533 -40 -718 0
-533 40 0
-533 718 0
534 -533 -27 0
-534 533 0
-534 27 0
535 -906 -532 0
-535 906 0
-535 532 0
536 -438 -43 0
-536 438 0
-536 43 0
537 -907 -535 0
-537 907 0
-537 535 0
538 -717 -702 0
-538 717 0
-538 702 0
539 -538 -17 0
-539 538 0
-539 17 0
540 -908 -537 0
-540 908 0
-540 537 0
541 -47 -10 0
-541 47 0
-541 10 0
542 -541 -40 0
-542 541 0
-542 40 0
543 -909 -540 0
-543 909 0
-543 540 0
544 -392 -24 0
-544 392 0
-544 24 0
545 -910 -543 0
-545 910 0
-545 543 0
546 -41 -40 0
-546 41 0
-546 40 0
547 -546 -763 0
-547 546 0
-547 763 0
548 -911 -545 0
-548 911 0
-548 545 0
549 -884 -7 0
-549 884 0
-549 7 0
550 -549 -15 0
-550 549 0
-550 15 0
551 -912 -548 0
-551 912 0
-551 548 0
552 -720 -13 0
-552 720 0
-552 13 0
553 -552 -743 0
-553 552 0
-553 743 0
554 -913 -551 0
-554 913 0
-554 551 0
555 -293 -743 0
-555 293 0
-555 743 0
556 -914 -554 0
-556 914 0
-556 554 0
557 -47 -13 0
-557 47 0
-557 13 0
558 -557 -715 0
-558 557 0
-558 715 0
559 -915 -556 0
-559 915 0
-559 556 0
560 -720 -7 0
-560 720 0
-560 7 0
561 -560 -782 0
-561 560 0
-561 782 0
562 -916 -559 0
-562 916 0
-562 559 0
563 -32 -2 0
-563 32 0
-563 2 0
564 -563 -14 0
-564 563 0
-564 14 0
565 -917 -562 0
-565 917 0
-565 562 0
566 -31 -15 0
-566 31 0
-566 15 0
567 -566 -743 0
-567 566 0
-567 743 0
568 -918 -565 0
-568 918 0
-568 565 0
569 -45 -30 0
-569 45 0
-569 30 0
570 -569 -780 0
-570 569 0
-570 780 0
571 -919 -568 0
-571 919 0
-571 568 0
572 -45 -9 0
-572 45 0
-572 9 0
573 -572 -34 0
-573 572 0
-573 34 0
574 -920 -571 0
-574 920 0
-574 571 0
575 -757 -732 0
-575 757 0
-575 732 0
576 -575 -921 0
-576 575 0
-576 921 0
577 -922 -574 0
-577 922 0
-577 574 0
578 -49 -20 0
-578 49 0
-578 20 0
579 -578 -697 0
-579 578 0
-579 697 0
580 -923 -577 0
-580 923 0
-580 577 0
581 -20 -7 0
-581 20 0
-581 7 0
582 -581 -44 0
-582 581 0
-582 44 0
583 -924 -580 0
-583 924 0
-583 580 0
584 -421 -6 0
-584 421 0
-584 6 0
585 -925 -583 0
-585 925 0
-585 583 0
586 -757 -40 0
-586 757 0
-586 40 0
587 -586 -762 0
-587 586 0
-587 762 0
588 -926 -585 0
-588 926 0
-588 585 0
589 -32 -753 0
-589 32 0
-589 753 0
590 -589 -5 0
-590 589 0
-590 5 0
591 -927 -588 0
-591 927 0
-591 588 0
592 -710 -13 0
-592 710 0
-592 13 0
593 -592 -734 0
-593 592 0
-593 734 0
594 -928 -591 0
-594 928 0
-594 591 0
595 -28 -712 0
-595 28 0
-595 712 0
596 -595 -35 0
-596 595 0
-596 35 0
597 -929 -594 0
-597 929 0
-597 594 0
598 -782 -701 0
-598 782 0
-598 701 0
599 -598 -5 0
-599 598 0
-599 5 0
600 -930 -597 0
-600 930 0
-600 597 0
601 -730 -8 0
-601 730 0
-601 8 0
602 -601 -921 0
-602 601 0
-602 921 0
603 -931 -600 0
-603 931 0
-603 600 0
604 -700 -6 0
-604 700 0
-604 6 0
605 -604 -3 0
-605 604 0
-605 3 0
606 -932 -603 0
-606 932 0
-606 603 0
607 -821 -7 0
-607 821 0
-607 7 0
608 -607 -762 0
-608 607 0
-608 762 0
609 -933 -606 0
-609 933 0
-609 606 0
610 -43 -751 0
-610 43 0
-610 751 0
611 -610 -44 0
-611 610 0
-611 44 0
612 -934 -609 0
-612 934 0
-612 609 0
613 -29 -11 0
-613 29 0
-613 11 0
614 -613 -757 0
-614 613 0
-614 757 0
615 -935 -612 0
-615 935 0
-615 612 0
616 -803 -712 0
-616 803 0
-616 712 0
617 -616 -762 0
-617 616 0
-617 762 0
618 -936 -615 0
-618 936 0
-618 615 0
619 -766 -8 0
-619 766 0
-619 8 0
620 -619 -47 0
-620 619 0
-620 47 0
621 -937 -618 0
-621 937 0
-621 618 0
622 -42 -41 0
-622 42 0
-622 41 0
623 -622 -34 0
-623 622 0
-623 34 0
624 -938 -621 0
-624 938 0
-624 621 0
625 -732 -16 0
-625 732 0
-625 16 0
626 -625 -37 0
-626 625 0
-626 37 0
627 -939 -624 0
-627 939 0
-627 624 0
628 -757 -705 0
-628 757 0
-628 705 0
629 -628 -43 0
-629 628 0
-629 43 0
630 -940 -627 0
-630 940 0
-630 627 0
631 -22 -17 0
-631 22 0
-631 17 0
632 -631 -763 0
-632 631 0
-632 763 0
633 -941 -630 0
-633 941 0
-633 630 0
634 -751 -2 0
-634 751 0
-634 2 0
635 -634 -704 0
-635 634 0
-635 704 0
636 -942 -633 0
-636 942 0
-636 633 0
637 -45 -42 0
-637 45 0
-637 42 0
638 -637 -696 0
-638 637 0
-638 696 0
639 -943 -636 0
-639 943 0
-639 636 0
640 -789 -773 0
-640 789 0
-640 773 0
641 -640 -21 0
-641 640 0
-641 21 0
642 -944 -639 0
-642 944 0
-642 639 0
643 -24 -17 0
-643 24 0
-643 17 0
644 -643 -44 0
-644 643 0
-644 44 0
645 -945 -642 0
-645 945 0
-645 642 0
646 -29 -10 0
-646 29 0
-646 10 0
647 -646 -3 0
-647 646 0
-647 3 0
648 -946 -645 0
-648 946 0
-648 645 0
649 -49 -46 0
-649 49 0
-649 46 0
650 -649 -3 0
-650 649 0
-650 3 0
651 -947 -648 0
-651 947 0
-651 648 0
652 -32 -30 0
-652 32 0
-652 30 0
653 -652 -5 0
-653 652 0
-653 5 0
654 -948 -651 0
-654 948 0
-654 651 0
655 -803 -9 0
-655 803 0
-655 9 0
656 -655 -14 0
-656 655 0
-656 14 0
657 -949 -654 0
-657 949 0
-657 654 0
658 -49 -721 0
-658 49 0
-658 721 0
659 -658 -5 0
-659 658 0
-659 5 0
660 -950 -657 0
-660 950 0
-660 657 0
661 -10 -702 0
-661 10 0
-661 702 0
662 -661 -38 0
-662 661 0
-662 38 0
663 -951 -660 0
-663 951 0
-663 660 0
664 -39 -36 0
-664 39 0
-664 36 0
665 -664 -762 0
-665 664 0
-665 762 0
666 -952 -663 0
-666 952 0
-666 663 0
667 -46 -779 0
-667 46 0
-667 779 0
668 -667 -6 0
-668 667 0
-668 6 0
669 -953 -666 0
-669 953 0
-669 666 0
670 -38 -28 0
-670 38 0
-670 28 0
671 -670 -757 0
-671 670 0
-671 757 0
672 -954 -669 0
-672 954 0
-672 669 0
673 -32 -7 0
-673 32 0
-673 7 0
674 -673 -775 0
-674 673 0
-674 775 0
675 -955 -672 0
-675 955 0
-675 672 0
676 -712 -710 0
-676 712 0
-676 710 0
677 -676 -37 0
-677 676 0
-677 37 0
678 -956 -675 0
-678 956 0
-678 675 0
679 -921 -773 0
-679 921 0
-679 773 0
680 -679 -18 0
-680 679 0
-680 18 0
681 -957 -678 0
-681 957 0
-681 678 0
682 -782 -34 0
-682 782 0
-682 34 0
683 -682 -786 0
-683 682 0
-683 786 0
684 -958 -681 0
-684 958 0
-684 681 0
685 -763 -702 0
-685 763 0
-685 702 0
686 -685 -786 0
-686 685 0
-686 786 0
687 -959 -684 0
-687 959 0
-687 684 0
688 -884 -694 0
-688 884 0
-688 694 0
689 -688 -780 0
-689 688 0
-689 780 0
690 -960 -687 0
-690 960 0
-690 687 0
691 -803 -1 0
-691 803 0
-691 1 0
692 -691 -25 0
-692 691 0
-692 25 0
693 -961 -690 0
-693 961 0
-693 690 0
-694 -2 0
694 2 0
-695 -1 0
695 1 0
-696 -5 0
696 5 0
-697 -6 0
697 6 0
-698 -54 0
698 54 0
-699 -52 0
699 52 0
-700 -8 0
700 8 0
-701 -7 0
701 7 0
-702 -9 0
702 9 0
-703 -57 0
703 57 0
-704 -11 0
704 11 0
-705 -10 0
705 10 0
-706 -60 0
706 60 0
-707 -63 0
707 63 0
-708 -18 0
708 18 0
-709 -66 0
709 66 0
-710 -19 0
710 19 0
-711 -69 0
711 69 0
-712 -20 0
712 20 0
-713 -72 0
713 72 0
-714 -23 0
714 23 0
-715 -22 0
715 22 0
-716 -75 0
716 75 0
-717 -24 0
717 24 0
-718 -14 0
718 14 0
-719 -78 0
719 78 0
-720 -26 0
720 26 0
-721 -15 0
721 15 0
-722 -81 0
722 81 0
-723 -12 0
723 12 0
-724 -27 0
724 27 0
-725 -84 0
725 84 0
-726 -87 0
726 87 0
-727 -90 0
727 90 0
-728 -28 0
728 28 0
-729 -93 0
729 93 0
-730 -13 0
730 13 0
-731 -96 0
731 96 0
-732 -30 0
732 30 0
-733 -99 0
733 99 0
-734 -16 0
734 16 0
-735 -102 0
735 102 0
-736 -32 0
736 32 0
-737 -105 0
737 105 0
-738 -107 0
738 107 0
-739 -110 0
739 110 0
-740 -4 0
740 4 0
-741 -113 0
741 113 0
-742 -116 0
742 116 0
-743 -37 0
743 37 0
-744 -119 0
744 119 0
-745 -122 0
745 122 0
-746 -41 0
746 41 0
-747 -125 0
747 125 0
-748 -128 0
748 128 0
-749 -130 0
749 130 0
-750 -133 0
750 133 0
-751 -33 0
751 33 0
-752 -136 0
752 136 0
-753 -21 0
753 21 0
-754 -139 0
754 139 0
-755 -142 0
755 142 0
-756 -145 0
756 145 0
-757 -42 0
757 42 0
-758 -148 0
758 148 0
-759 -151 0
759 151 0
-760 -154 0
760 154 0
-761 -157 0
761 157 0
-762 -17 0
762 17 0
-763 -35 0
763 35 0
-764 -160 0
764 160 0
-765 -163 0
765 163 0
-766 -45 0
766 45 0
-767 -166 0
767 166 0
-768 -39 0
768 39 0
-769 -169 0
769 169 0
-770 -172 0
770 172 0
-771 -175 0
771 175 0
-772 -178 0
772 178 0
-773 -25 0
773 25 0
-774 -181 0
774 181 0
-775 -48 0
775 48 0
-776 -184 0
776 184 0
-777 -3 0
777 3 0
-778 -187 0
778 187 0
-779 -36 0
779 36 0
-780 -44 0
780 44 0
-781 -190 0
781 190 0
-782 -49 0
782 49 0
-783 -193 0
783 193 0
-784 -196 0
784 196 0
-785 -199 0
785 199 0
-786 -43 0
786 43 0
-787 -202 0
787 202 0
-788 -205 0
788 205 0
-789 -47 0
789 47 0
-790 -208 0
790 208 0
-791 -211 0
791 211 0
-792 -214 0
792 214 0
-793 -40 0
793 40 0
-794 -217 0
794 217 0
-795 -220 0
795 220 0
-796 -223 0
796 223 0
-797 -29 0
797 29 0
-798 -226 0
798 226 0
-799 -229 0
799 229 0
-800 -232 0
800 232 0
-801 -235 0
801 235 0
-802 -238 0
802 238 0
-803 -46 0
803 46 0
-804 -241 0
804 241 0
-805 -243 0
805 243 0
-806 -246 0
806 246 0
-807 -249 0
807 249 0
-808 -252 0
808 252 0
-809 -255 0
809 255 0
-810 -258 0
810 258 0
-811 -261 0
811 261 0
-812 -264 0
812 264 0
-813 -267 0
813 267 0
-814 -270 0
814 270 0
-815 -273 0
815 273 0
-816 -276 0
816 276 0
-817 -279 0
817 279 0
-818 -282 0
818 282 0
-819 -285 0
819 285 0
-820 -288 0
820 288 0
-821 -50 0
821 50 0
-822 -291 0
822 291 0
-823 -294 0
823 294 0
-824 -297 0
824 297 0
-825 -300 0
825 300 0
-826 -303 0
826 303 0
-827 -31 0
827 31 0
-828 -306 0
828 306 0
-829 -309 0
829 309 0
-830 -312 0
830 312 0
-831 -315 0
831 315 0
-832 -318 0
832 318 0
-833 -321 0
833 321 0
-834 -324 0
834 324 0
-835 -327 0
835 327 0
-836 -330 0
836 330 0
-837 -333 0
837 333 0
-838 -336 0
838 336 0
-839 -339 0
839 339 0
-840 -342 0
840 342 0
-841 -345 0
841 345 0
-842 -348 0
842 348 0
-843 -351 0
843 351 0
-844 -354 0
844 354 0
-845 -357 0
845 357 0
-846 -360 0
846 360 0
-847 -363 0
847 363 0
-848 -366 0
848 366 0
-849 -369 0
849 369 0
-850 -372 0
850 372 0
-851 -375 0
851 375 0
-852 -378 0
852 378 0
-853 -381 0
853 381 0
-854 -384 0
854 384 0
-855 -387 0
855 387 0
-856 -390 0
856 390 0
-857 -393 0
857 393 0
-858 -395 0
858 395 0
-859 -398 0
859 398 0
-860 -401 0
860 401 0
-861 -404 0
861 404 0
-862 -407 0
862 407 0
-863 -410 0
863 410 0
-864 -413 0
864 413 0
-865 -416 0
865 416 0
-866 -419 0
866 419 0
-867 -422 0
867 422 0
-868 -425 0
868 425 0
-869 -428 0
869 428 0
-870 -431 0
870 431 0
-871 -434 0
871 434 0
-872 -436 0
872 436 0
-873 -439 0
873 439 0
-874 -442 0
874 442 0
-875 -445 0
875 445 0
-876 -448 0
876 448 0
-877 -451 0
877 451 0
-878 -454 0
878 454 0
-879 -457 0
879 457 0
-880 -460 0
880 460 0
-881 -463 0
881 463 0
-882 -466 0
882 466 0
-883 -469 0
883 469 0
-884 -38 0
884 38 0
-885 -472 0
885 472 0
-886 -475 0
886 475 0
-887 -478 0
887 478 0
-888 -481 0
888 481 0
-889 -484 0
889 484 0
-890 -487 0
890 487 0
-891 -490 0
891 490 0
-892 -493 0
892 493 0
-893 -496 0
893 496 0
-894 -499 0
894 499 0
-895 -502 0
895 502 0
-896 -505 0
896 505 0
-897 -507 0
897 507 0
-898 -510 0
898 510 0
-899 -513 0
899 513 0
-900 -516 0
900 516 0
-901 -519 0
901 519 0
-902 -522 0
902 522 0
-903 -525 0
903 525 0
-904 -528 0
904 528 0
-905 -531 0
905 531 0
-906 -534 0
906 534 0
-907 -536 0
907 536 0
-908 -539 0
908 539 0
-909 -542 0
909 542 0
-910 -544 0
910 544 0
-911 -547 0
911 547 0
-912 -550 0
912 550 0
-913 -553 0
913 553 0
-914 -555 0
914 555 0
-915 -558 0
915 558 0
-916 -561 0
916 561 0
-917 -564 0
917 564 0
-918 -567 0
918 567 0
-919 -570 0
919 570 0
-920 -573 0
920 573 0
-921 -34 0
921 34 0
-922 -576 0
922 576 0
-923 -579 0
923 579 0
-924 -582 0
924 582 0
-925 -584 0
925 584 0
-926 -587 0
926 587 0
-927 -590 0
927 590 0
-928 -593 0
928 593 0
-929 -596 0
929 596 0
-930 -599 0
930 599 0
-931 -602 0
931 602 0
-932 -605 0
932 605 0
-933 -608 0
933 608 0
-934 -611 0
934 611 0
-935 -614 0
935 614 0
-936 -617 0
936 617 0
-937 -620 0
937 620 0
-938 -623 0
938 623 0
-939 -626 0
939 626 0
-940 -629 0
940 629 0
-941 -632 0
941 632 0
-942 -635 0
942 635 0
-943 -638 0
943 638 0
-944 -641 0
944 641 0
-945 -644 0
945 644 0
-946 -647 0
946 647 0
-947 -650 0
947 650 0
-948 -653 0
948 653 0
-949 -656 0
949 656 0
-950 -659 0
950 659 0
-951 -662 0
951 662 0
-952 -665 0
952 665 0
-953 -668 0
953 668 0
-954 -671 0
954 671 0
-955 -674 0
955 674 0
-956 -677 0
956 677 0
-957 -680 0
957 680 0
-958 -683 0
958 683 0
-959 -686 0
959 686 0
-960 -689 0
960 689 0
-961 -692 0
961 692 0
693 0
